0 2175
1 2175
2 2153
3 2153
4 2062
5 1964
6 1964
7 1904
8 1885
9 1853
10 1730
11 1730
12 1699
13 1699
14 1687
15 1683
16 1683
17 1683
18 1640
19 1640
20 1614
21 1614
22 1579
23 1579
24 1563
25 1563
26 1563
27 1554
28 1522
29 1522
30 1522
31 1522
32 1522
33 1498
34 1489
35 1481
36 1481
37 1447
38 1442
39 1403
40 1403
41 1403
42 1403
43 1382
44 1382
45 1382
46 1382
47 1382
48 1382
49 1382
50 1382
51 1382
52 1382
53 1382
54 1382
55 1382
56 1382
57 1382
58 1382
59 1382
60 1382
61 1380
62 1380
63 1369
64 1369
65 1359
66 1359
67 1359
68 1359
69 1359
70 1340
71 1334
72 1334
73 1263
74 1263
75 1263
76 1263
77 1263
78 1263
79 1263
80 1263
81 1263
82 1263
83 1263
84 1263
85 1241
86 1241
87 1241
88 1241
89 1225
90 1225
91 1225
92 1225
93 1225
94 1225
95 1225
96 1225
97 1225
98 1225
99 1225
100 1214
101 1214
102 1214
103 1214
104 1214
105 1214
106 1214
107 1211
108 1176
109 1176
110 1176
111 1176
112 1176
113 1176
114 1176
115 1176
116 1173
117 1172
118 1172
119 1172
120 1172
121 1172
122 1171
123 1171
124 1171
125 1171
126 1171
127 1171
128 1171
129 1171
130 1171
131 1171
132 1171
133 1155
134 1155
135 1155
136 1155
137 1155
138 1155
139 1155
140 1155
141 1155
142 1135
143 1135
144 1135
145 1135
146 1135
147 1135
148 1135
149 1135
150 1135
151 1135
152 1135
153 1135
154 1135
155 1135
156 1135
157 1128
158 1128
159 1128
160 1124
161 1124
162 1117
163 1117
164 1117
165 1117
166 1117
167 1117
168 1117
169 1117
170 1117
171 1117
172 1117
173 1117
174 1117
175 1117
176 1117
177 1103
178 1103
179 1103
180 1103
181 1103
182 1103
183 1103
184 1103
185 1103
186 1103
187 1103
188 1103
189 1103
190 1103
191 1069
192 1069
193 1069
194 1069
195 1069
196 1069
197 1069
198 1069
199 1069
200 1069
201 1069
202 1069
203 1069
204 1069
205 1069
206 1068
207 1068
208 1068
209 1068
210 1068
211 1068
212 1068
213 1068
214 1068
215 1068
216 1068
217 1068
218 1068
219 1068
220 1068
221 1068
222 1068
223 1068
224 1068
225 1068
226 1068
227 1068
228 1068
229 1068
230 1068
231 1068
232 1068
233 1068
234 1068
235 1068
236 1068
237 1068
238 1068
239 1068
240 1068
241 1068
242 1068
243 1068
244 1068
245 1068
246 1068
247 1068
248 1068
249 1068
250 1068
251 1068
252 1068
253 1068
254 1068
255 1068
256 1068
257 1068
258 1068
259 1068
260 1068
261 1068
262 1068
263 1068
264 1065
265 1065
266 1065
267 1065
268 1065
269 1065
270 1065
271 1065
272 1065
273 1065
274 1065
275 1065
276 1065
277 1065
278 1065
279 1065
280 1065
281 1065
282 1065
283 1065
284 1065
285 1065
286 1065
287 1065
288 1065
289 1065
290 1065
291 1065
292 1065
293 1065
294 1065
295 1065
296 1065
297 1065
298 1065
299 1065
300 1065
301 1065
302 1065
303 1065
304 1065
305 1065
306 1065
307 1065
308 1065
309 1065
310 1065
311 1065
312 1065
313 1065
314 1065
315 1065
316 1065
317 1065
318 1065
319 1065
320 1065
321 1065
322 1065
323 1065
324 1065
325 1065
326 1065
327 1065
328 1065
329 1065
330 1065
331 1065
332 1065
333 1065
334 1065
335 1065
336 1065
337 1065
338 1065
339 1065
340 1065
341 1065
342 1065
343 1065
344 1065
345 1065
346 1065
347 1065
348 1065
349 1065
350 1065
351 1065
352 1065
353 1065
354 1065
355 1065
356 1065
357 1065
358 1065
359 1065
360 1065
361 1065
362 1065
363 1065
364 1065
365 1065
366 1065
367 1065
368 1065
369 1065
370 1065
371 1065
372 1065
373 1065
374 1065
375 1065
376 1065
377 1065
378 1065
379 1065
380 1065
381 1065
382 1065
383 1065
384 1065
385 1065
386 1065
387 1065
388 1065
389 1065
390 1065
391 1065
392 1065
393 1065
394 1065
395 1065
396 1065
397 1065
398 1065
399 1065
400 1065
401 1065
402 1065
403 1065
404 1065
405 1065
406 1065
407 1065
408 1065
409 1065
410 1065
411 1065
412 1065
413 1065
414 1065
415 1065
416 1065
417 1065
418 1065
419 1065
420 1065
421 1065
422 1065
423 1065
424 1065
425 1065
426 1065
427 1065
428 1065
429 1065
430 1065
431 1065
432 1065
433 1065
434 1065
435 1065
436 1065
437 1065
438 1065
439 1065
440 1065
441 1065
442 1065
443 1065
444 1065
445 1065
446 1065
447 1065
448 1065
449 1065
450 1065
451 1065
452 1065
453 1065
454 1065
455 1065
456 1065
457 1065
458 1065
459 1065
460 1065
461 1065
462 1065
463 1065
464 1065
465 1065
466 1065
467 1065
468 1065
469 1065
470 1065
471 1065
472 1065
473 1065
474 1065
475 1065
476 1065
477 1065
478 1065
479 1065
480 1065
481 1065
482 1065
483 1065
484 1065
485 1065
486 1065
487 1065
488 1065
489 1065
490 1065
491 1065
492 1065
493 1065
494 1065
495 1065
496 1065
497 1065
498 1065
499 1065
500 1065
501 1065
502 1065
503 1065
504 1065
505 1065
506 1065
507 1065
508 1065
509 1065
510 1065
511 1065
512 1065
513 1065
514 1065
515 1065
516 1065
517 1065
518 1065
519 1065
520 1065
521 1065
522 1065
523 1065
524 1065
525 1065
526 1065
527 1065
528 1065
529 1065
530 1065
531 1065
532 1065
533 1065
534 1065
535 1065
536 1065
537 1065
538 1065
539 1065
540 1065
541 1065
542 1065
543 1065
544 1065
545 1065
546 1065
547 1065
548 1065
549 1065
550 1065
551 1065
552 1065
553 1065
554 1065
555 1065
556 1065
557 1065
558 1065
559 1065
560 1065
561 1065
562 1065
563 1065
564 1065
565 1065
566 1065
567 1065
568 1065
569 1065
570 1065
571 1065
572 1065
573 1065
574 1065
575 1065
576 1065
577 1065
578 1065
579 1065
580 1065
581 1065
582 1065
583 1065
584 1065
585 1065
586 1065
587 1065
588 1065
589 1065
590 1065
591 1065
592 1065
593 1065
594 1065
595 1065
596 1065
597 1065
598 1065
599 1065
600 1065
601 1065
602 1065
603 1065
604 1065
605 1065
606 1065
607 1065
608 1065
609 1065
610 1065
611 1065
612 1065
613 1065
614 1065
615 1065
616 1065
617 1065
618 1065
619 1065
620 1065
621 1065
622 1065
623 1065
624 1065
625 1065
626 1065
627 1065
628 1065
629 1065
630 1065
631 1065
632 1065
633 1065
634 1065
635 1065
636 1065
637 1065
638 1065
639 1065
640 1065
641 1065
642 1065
643 1065
644 1065
645 1065
646 1065
647 1065
648 1065
649 1065
650 1065
651 1065
652 1065
653 1065
654 1065
655 1065
656 1065
657 1065
658 1065
659 1065
660 1065
661 1065
662 1065
663 1065
664 1065
665 1065
666 1065
667 1065
668 1065
669 1065
670 1065
671 1065
672 1065
673 1065
674 1065
675 1065
676 1065
677 1065
678 1065
679 1065
680 1065
681 1065
682 1065
683 1065
684 1065
685 1065
686 1065
687 1065
688 1065
689 1065
690 1065
691 1065
692 1065
693 1065
694 1065
695 1065
696 1065
697 1065
698 1065
699 1065
700 1065
701 1065
702 1065
703 1065
704 1065
705 1065
706 1065
707 1065
708 1065
709 1065
710 1065
711 1065
712 1065
713 1065
714 1065
715 1065
716 1065
717 1065
718 1065
719 1065
720 1065
721 1065
722 1065
723 1065
724 1065
725 1065
726 1065
727 1065
728 1065
729 1065
730 1065
731 1065
732 1065
733 1065
734 1065
735 1065
736 1065
737 1065
738 1065
739 1065
740 1065
741 1065
742 1065
743 1065
744 1065
745 1065
746 1065
747 1065
748 1065
749 1065
750 1065
751 1065
752 1065
753 1065
754 1065
755 1065
756 1065
757 1065
758 1065
759 1065
760 1065
761 1065
762 1065
763 1065
764 1065
765 1065
766 1065
767 1065
768 1065
769 1065
770 1065
771 1065
772 1065
773 1065
774 1065
775 1065
776 1065
777 1065
778 1065
779 1065
780 1065
781 1065
782 1065
783 1065
784 1065
785 1065
786 1065
787 1065
788 1065
789 1065
790 1065
791 1065
792 1065
793 1065
794 1065
795 1065
796 1065
797 1065
798 1065
799 1065
800 1065
801 1065
802 1065
803 1065
804 1065
805 1065
806 1065
807 1065
808 1065
809 1065
810 1065
811 1065
812 1065
813 1065
814 1065
815 1065
816 1065
817 1065
818 1065
819 1065
820 1065
821 1065
822 1065
823 1065
824 1065
825 1065
826 1065
827 1065
828 1065
829 1065
830 1065
831 1065
832 1065
833 1065
834 1065
835 1065
836 1065
837 1065
838 1065
839 1065
840 1065
841 1065
842 1065
843 1065
844 1065
845 1065
846 1065
847 1065
848 1065
849 1065
850 1065
851 1065
852 1065
853 1065
854 1065
855 1065
856 1065
857 1065
858 1065
859 1065
860 1065
861 1065
862 1065
863 1065
864 1065
865 1065
866 1065
867 1065
868 1065
869 1065
870 1065
871 1065
872 1065
873 1065
874 1065
875 1065
876 1065
877 1065
878 1065
879 1065
880 1065
881 1065
882 1065
883 1065
884 1065
885 1065
886 1065
887 1065
888 1065
889 1065
890 1065
891 1065
892 1065
893 1065
894 1065
895 1065
896 1065
897 1065
898 1065
899 1065
900 1065
901 1065
902 1065
903 1065
904 1065
905 1065
906 1065
907 1065
908 1065
909 1065
910 1065
911 1065
912 1065
913 1065
914 1065
915 1065
916 1065
917 1065
918 1065
919 1065
920 1065
921 1065
922 1065
923 1065
924 1065
925 1065
926 1065
927 1065
928 1065
929 1065
930 1065
931 1065
932 1065
933 1065
934 1065
935 1065
936 1065
937 1065
938 1065
939 1065
940 1065
941 1065
942 1065
943 1065
944 1065
945 1065
946 1065
947 1065
948 1065
949 1065
950 1065
951 1065
952 1065
953 1065
954 1065
955 1065
956 1065
957 1065
958 1065
959 1065
960 1065
961 1065
962 1065
963 1065
964 1065
965 1065
966 1065
967 1065
968 1065
969 1065
970 1065
971 1065
972 1065
973 1065
974 1065
975 1065
976 1065
977 1065
978 1065
979 1065
980 1065
981 1065
982 1065
983 1065
984 1065
985 1065
986 1065
987 1065
988 1065
989 1065
990 1065
991 1065
992 1065
993 1065
994 1065
995 1065
996 1065
997 1065
998 1065
999 1065
Best: [[25,15],
       [21,26,11,6,31,17,13],
       [28,16,10,19,3,4],
       [27,22,32,20,18,29,9,7],
       [30,23,12,5,24,14,8,2]], fitness: 1065
